Version identifier: 22.1.0.0 | 2022-03-09 | 1a383f8ce
CPXPARAM_Threads                                 1
CPXPARAM_MIP_Strategy_VariableSelect             3
CPXPARAM_TimeLimit                               600
Tried aggregator 1 time.
Reduced MIP has 4520 rows, 18000 columns, and 108809 nonzeros.
Reduced MIP has 14500 binaries, 3500 generals, 0 SOSs, and 0 indicators.
Presolve time = 0.06 sec. (44.19 ticks)
Found incumbent of value 3.147000 after 0.17 sec. (114.04 ticks)
Probing time = 0.01 sec. (6.05 ticks)
Tried aggregator 1 time.
Detecting symmetries...
Reduced MIP has 4520 rows, 18000 columns, and 108809 nonzeros.
Reduced MIP has 14500 binaries, 3500 generals, 0 SOSs, and 0 indicators.
Presolve time = 0.08 sec. (55.39 ticks)
Probing time = 0.01 sec. (6.05 ticks)
Clique table members: 510.
MIP emphasis: balance optimality and feasibility.
MIP search method: dynamic search.
Parallel mode: none, using 1 thread.
Root relaxation solution time = 4.55 sec. (3824.72 ticks)

        Nodes                                         Cuts/
   Node  Left     Objective  IInf  Best Integer    Best Bound    ItCnt     Gap

*     0+    0                            3.1470        0.0000           100.00%
      0     0        0.0000  3678        3.1470        0.0000    10786  100.00%
*     0+    0                            0.6790        0.0000           100.00%
      0     0        0.0000  1320        0.6790   ZeroHalf: 6    12088  100.00%
      0     0        0.0000  2062        0.6790     Cuts: 230    22205  100.00%
      0     0        0.0000  1192        0.6790  ZeroHalf: 10    23809  100.00%
*     0+    0                            0.4740        0.0000           100.00%
      0     0  -1.00000e+75     0        0.4740        0.0000    23809  100.00%
      0     0        0.0000  1374        0.4740 ZeroHalf: 149    28355  100.00%
*     0+    0                            0.0270        0.0000           100.00%
*     0+    0                            0.0210        0.0000           100.00%
*     0+    0                            0.0190        0.0000           100.00%
      0     0  -1.00000e+75     0        0.0190        0.0000    28355  100.00%
Detecting symmetries...
      0     2        0.0000   316        0.0190        0.0000    28355  100.00%
Elapsed time = 78.83 sec. (68174.01 ticks, tree = 0.01 MB, solutions = 6)
      1     3        0.0000  1596        0.0190        0.0000    65851  100.00%
      2     4        0.0000   428        0.0190        0.0000    73103  100.00%
      3     5        0.0000   448        0.0190        0.0000    82982  100.00%
      4     6        0.0000   437        0.0190        0.0000    83334  100.00%
      5     7        0.0000   443        0.0190        0.0000    86907  100.00%
      6     8        0.0000   422        0.0190        0.0000    90556  100.00%
      7     9        0.0000   497        0.0190        0.0000    96395  100.00%
      8    10        0.0000   467        0.0190        0.0000    98063  100.00%
      9    11        0.0000   453        0.0190        0.0000   100684  100.00%
     10    12        0.0000   612        0.0190        0.0000   105150  100.00%
Elapsed time = 131.97 sec. (115821.78 ticks, tree = 0.23 MB, solutions = 6)
     11    13        0.0000   447        0.0190        0.0000   105815  100.00%
     12    14        0.0000   509        0.0190        0.0000   106725  100.00%
     14    16        0.0000   533        0.0190        0.0000   107768  100.00%
     15    17        0.0000   745        0.0190        0.0000   110653  100.00%
     16    18        0.0000   860        0.0190        0.0000   120415  100.00%
     17    19        0.0000   576        0.0190        0.0000   125022  100.00%
     18    20        0.0000   482        0.0190        0.0000   146217  100.00%
     19    21        0.0000   624        0.0190        0.0000   149665  100.00%
     20    22        0.0000   461        0.0190        0.0000   153582  100.00%
     21    23        0.0000   490        0.0190        0.0000   156279  100.00%
Elapsed time = 155.95 sec. (136126.70 ticks, tree = 0.67 MB, solutions = 6)
     22    24        0.0000   471        0.0190        0.0000   158799  100.00%
     23    25        0.0000   506        0.0190        0.0000   165635  100.00%
     25    27        0.0000   537        0.0190        0.0000   182617  100.00%
     27    29        0.0000   475        0.0190        0.0000   185118  100.00%
     28    30        0.0000   617        0.0190        0.0000   191581  100.00%
     29    31        0.0000   487        0.0190        0.0000   192806  100.00%
     30    32        0.0000   427        0.0190        0.0000   202575  100.00%
     31    33        0.0000   548        0.0190        0.0000   203615  100.00%
     32    34        0.0000   473        0.0190        0.0000   205716  100.00%
     33    35        0.0000   554        0.0190        0.0000   208094  100.00%
Elapsed time = 188.37 sec. (163868.32 ticks, tree = 1.12 MB, solutions = 6)
     35    37        0.0000   607        0.0190        0.0000   215996  100.00%
     37    39        0.0000   618        0.0190        0.0000   217523  100.00%
     39    41        0.0000   604        0.0190        0.0000   221427  100.00%
     40    42        0.0000   551        0.0190        0.0000   221641  100.00%
     41    43        0.0000   590        0.0190        0.0000   226201  100.00%
     43    45        0.0000   328        0.0190        0.0000   235094  100.00%
     44    46        0.0000   394        0.0190        0.0000   236821  100.00%
     45    47        0.0000   567        0.0190        0.0000   241116  100.00%
     47    49        0.0000   473        0.0190        0.0000   246566  100.00%
     49    51        0.0000   409        0.0190        0.0000   251109  100.00%
Elapsed time = 233.34 sec. (203256.38 ticks, tree = 1.73 MB, solutions = 6)
     50    52        0.0000   390        0.0190        0.0000   251861  100.00%
     51    53        0.0000   521        0.0190        0.0000   253460  100.00%
     52    54        0.0000   468        0.0190        0.0000   254381  100.00%
     53    55        0.0000   550        0.0190        0.0000   259823  100.00%
     55    57        0.0000   447        0.0190        0.0000   274678  100.00%
     56    58        0.0000   520        0.0190        0.0000   281873  100.00%
     58    60        0.0000   543        0.0190        0.0000   286519  100.00%
     59    61        0.0000   541        0.0190        0.0000   295660  100.00%
     60    62        0.0000   481        0.0190        0.0000   298640  100.00%
     62    64        0.0000   479        0.0190        0.0000   301313  100.00%
Elapsed time = 265.51 sec. (231204.79 ticks, tree = 2.26 MB, solutions = 6)
     63    65        0.0000   637        0.0190        0.0000   310135  100.00%
     65    67        0.0000   537        0.0190        0.0000   324629  100.00%
     66    68       -0.0000   479        0.0190        0.0000   327860  100.00%
     67    69        0.0000   771        0.0190        0.0000   342335  100.00%
     69    71        0.0000   682        0.0190        0.0000   342397  100.00%
     70    72       -0.0000   601        0.0190        0.0000   344841  100.00%
     71    73       -0.0000   574        0.0190        0.0000   345792  100.00%
     73    75       -0.0000   540        0.0190        0.0000   351962  100.00%
     74    76       -0.0000   509        0.0190        0.0000   353839  100.00%
     75    77       -0.0000   497        0.0190        0.0000   354963  100.00%
Elapsed time = 301.50 sec. (263376.70 ticks, tree = 2.78 MB, solutions = 6)
     76    78       -0.0000   417        0.0190        0.0000   362272  100.00%
     77    79        0.0000   406        0.0190        0.0000   364452  100.00%
     78    80        0.0000   414        0.0190        0.0000   365221  100.00%
     79    81       -0.0000   497        0.0190        0.0000   370551  100.00%
     80    82       -0.0000   386        0.0190        0.0000   372159  100.00%
     81    83       -0.0000   375        0.0190        0.0000   375565  100.00%
     82    84       -0.0000   373        0.0190        0.0000   378333  100.00%
     84    86        0.0000   405        0.0190        0.0000   383310  100.00%
     85    87       -0.0000   399        0.0190        0.0000   389816  100.00%
     86    88       -0.0000   402        0.0190        0.0000   390637  100.00%
Elapsed time = 333.92 sec. (292759.52 ticks, tree = 3.19 MB, solutions = 6)
     87    89        0.0000   464        0.0190        0.0000   396877  100.00%
     88    90       -0.0000   410        0.0190        0.0000   398944  100.00%
     89    91       -0.0000   375        0.0190        0.0000   401912  100.00%
     90    92       -0.0000   372        0.0190        0.0000   403777  100.00%
     92    94        0.0000   381        0.0190        0.0000   405203  100.00%
     93    95       -0.0000   382        0.0190        0.0000   406711  100.00%
     94    96       -0.0000   415        0.0190        0.0000   407709  100.00%
     95    97       -0.0000   345        0.0190        0.0000   408793  100.00%
     96    98       -0.0000   400        0.0190        0.0000   411868  100.00%
     97    99       -0.0000   444        0.0190        0.0000   415796  100.00%
Elapsed time = 359.21 sec. (315424.63 ticks, tree = 3.68 MB, solutions = 6)
     98   100       -0.0000   360        0.0190        0.0000   417084  100.00%
     99   101       -0.0000   356        0.0190        0.0000   417857  100.00%
    100   102       -0.0000   409        0.0190        0.0000   421873  100.00%
    101   103       -0.0000  1045        0.0190        0.0000   430917  100.00%
    102   104       -0.0000   343        0.0190        0.0000   431803  100.00%
    103   105        0.0000   482        0.0190        0.0000   438035  100.00%
    104   106        0.0000   338        0.0190        0.0000   440756  100.00%
    106   108       -0.0000   344        0.0190        0.0000   443104  100.00%
    107   109        0.0000   475        0.0190        0.0000   446708  100.00%
    109   111       -0.0000   320        0.0190        0.0000   448291  100.00%
Elapsed time = 387.80 sec. (340562.41 ticks, tree = 4.17 MB, solutions = 6)
    110   112       -0.0000   335        0.0190        0.0000   449599  100.00%
    111   113        0.0000   293        0.0190        0.0000   451798  100.00%
    113   115       -0.0000   298        0.0190        0.0000   452831  100.00%
    114   116       -0.0000   198        0.0190        0.0000   456502  100.00%
    115   117       -0.0000   234        0.0190        0.0000   459652  100.00%
    116   118        0.0010   253        0.0190        0.0000   462455  100.00%
    117   119       -0.0000   338        0.0190        0.0000   464470  100.00%
    118   120       -0.0000   468        0.0190        0.0000   469702  100.00%
    119   121       -0.0000   302        0.0190        0.0000   473765  100.00%
    120   122        0.0000   301        0.0190        0.0000   475688  100.00%
Elapsed time = 415.45 sec. (364405.43 ticks, tree = 4.62 MB, solutions = 6)
    121   123       -0.0000   496        0.0190        0.0000   484416  100.00%
    124   126        0.0000   279        0.0190        0.0000   487968  100.00%
    126   128       -0.0000   163        0.0190        0.0000   493940  100.00%
    130   132        0.0000   113        0.0190        0.0000   499161  100.00%
    132   134       -0.0000    85        0.0190        0.0000   505021  100.00%
    137   139       -0.0000    30        0.0190        0.0000   508425  100.00%
*   138     1      integral     0       -0.0000        0.0000   508495    0.00%

Zero-half cuts applied:  52
Gomory fractional cuts applied:  2

Root node processing (before b&c):
  Real time             =   78.78 sec. (68140.90 ticks)
Sequential b&c:
  Real time             =  366.73 sec. (322420.95 ticks)
                          ------------
Total (root+branch&cut) =  445.51 sec. (390561.85 ticks)
Primal number of violations:	-8.88178e-19
Dual number of violations:	0
Status:	Optimal
Time:	445.43
Sequence:
	19
	6
	18
	19
	6
	18
	19
	12
	2
	16
	7
	2
	14
	10
	6
	14
	10
	18
	3
	9
	4
	3
	9
	4
	3
	9
	4
	3
	9
	18
	3
	13
	15
	14
	0
	11
	3
	13
	11
	14
	0
	11
	14
	0
	11
	3
	13
	15
	14
	0
	15
	3
	13
	11
	14
	0
	11
	3
	13
	11
	3
	13
	11
	14
	0
	11
	14
	4
	9
	14
	2
	9
	14
	2
	9
	14
	18
	10
	17
	18
	10
	8
	5
	10
	17
	18
	10
	8
	1
	10
	8
	1
	10
	8
	1
	10
	8
	4
	10
	8
	4
	10
	8
	2
	0
	8
	7
	0
	8
	7
	13
	8
	7
	13
	8
	1
	7
	16
	1
	2
	16
	15
	5
	16
	15
	5
	16
	7
	2
	16
	15
	5
	16
	15
	5
	16
	15
	5
	16
	1
	18
	19
	12
	2
	19
	12
	2
	19
	6
	18
	19
	12
	2
	16
	7
	1
	16
	15
	5
	16
	15
	5
	16
	15
	5
	16
	7
	6
	16
	1
	15
	14
	0
	11
	14
	18
	9
	14
	5
	9
	2
	14
	9
	18
	14
	9
	2
	3
	13
	11
	3
	13
	11
	14
	0
	11
	3
	13
	11
	3
	13
	11
	3
	13
	11
	3
	13
	11
	14
	0
	11
	3
	13
	15
	14
	0
	11
	14
	2
	9
	14
	18
	9
	14
	4
	9
	3
	5
	9
	3
	4
	0
	17
	7
	0
	17
	7
	0
	8
	7
	13
	8
	7
	0
	8
	7
	13
	8
	7
	13
	8
	7
	13
	8
	7
	13
	8
	7
	13
	8
	7
	13
	8
	7
	0
	17
	7
	0
	17
	7
	0
	17
	7
	0
	17
	7
	0
	17
	7
	13
	4
	8
	10
	18
	17
	10
	4
	8
	10
	4
	8
	10
	18
	17
	10
	1
	8
	10
	18
	17
	10
	5
	8
	10
	18
	17
	10
	18
	17
	10
	2
	12
	19
	4
	6
	19
	4
	1
	19
	6
	1
	19
	12
	2
	19
	12
	5
	16
	15
	5
	16
	6
	1
	19
	2
	12
	19
	4
	1
	19
	12
	2
	19
	6
	4
	19
	4
	6
	19
	4
	6
	19
	2
	12
	19
	18
	6
	19
	5
	6
	19
	1
	6
	19
	5
	6
	19
	4
	6
	19
	2
	12
	19
	2
	2
	9
	14
	2
	9
	3
	4
	9
	3
	18
	9
	14
	18
	10
	17
	18
	10
	17
	18
	10
	17
	18
	10
	8
	1
	10
	17
	18
	10
	17
	18
	10
	3
	18
	9
	14
	4
	9
	3
	5
	9
	3
	5
	9
	3
	18
	9
	14
	5
	10
	17
	18
	10
	8
	4
	13
	11
	3
	13
	11
	14
	0
	15
	3
	0
	6
	14
	18
	9
	18
	5
	19
	2
	4
	19
	6
	1
	19
	12
	5
	19
	6
	1
	19
	6
	18
	19
	12
	2
	19
	6
	4
	19
	6
	1
	19
	6
	1
	16
	15
	5
	16
	15
	5
	16
	15
	5
	16
	15
	5
	16
	15
	5
	16
	15
	5
	16
	2
	12
	19
	18
	6
	19
	2
	12
	19
